set basis 6-31G*
molecule {
0 1
   O       -1.93377        2.96545        0.02038
   H       -0.94444        2.94041       -0.01439
   H       -2.22313        2.41195       -0.74806
}
optimize('scf')
